p cnf 72 1578 
1 2 3 4 5 6 7 8 9 10 11 12 0
13 14 15 16 17 18 19 20 21 22 23 24 0
25 26 27 28 29 30 31 32 33 34 35 36 0
37 38 39 40 41 42 43 44 45 46 47 48 0
49 50 51 52 53 54 55 56 57 58 59 60 0
61 62 63 64 65 66 67 68 69 70 71 72 0
-1 -2 0
-1 -3 0
-1 -4 0
-1 -5 0
-1 -6 0
-1 -7 0
-1 -8 0
-1 -9 0
-1 -10 0
-1 -11 0
-1 -12 0
-2 -1 0
-2 -3 0
-2 -4 0
-2 -5 0
-2 -6 0
-2 -7 0
-2 -8 0
-2 -9 0
-2 -10 0
-2 -11 0
-2 -12 0
-3 -1 0
-3 -2 0
-3 -4 0
-3 -5 0
-3 -6 0
-3 -7 0
-3 -8 0
-3 -9 0
-3 -10 0
-3 -11 0
-3 -12 0
-13 -14 0
-13 -15 0
-13 -16 0
-13 -17 0
-13 -18 0
-13 -19 0
-13 -20 0
-13 -21 0
-13 -22 0
-13 -23 0
-13 -24 0
-14 -13 0
-14 -15 0
-14 -16 0
-14 -17 0
-14 -18 0
-14 -19 0
-14 -20 0
-14 -21 0
-14 -22 0
-14 -23 0
-14 -24 0
-15 -13 0
-15 -14 0
-15 -16 0
-15 -17 0
-15 -18 0
-15 -19 0
-15 -20 0
-15 -21 0
-15 -22 0
-15 -23 0
-15 -24 0
-25 -26 0
-25 -27 0
-25 -28 0
-25 -29 0
-25 -30 0
-25 -31 0
-25 -32 0
-25 -33 0
-25 -34 0
-25 -35 0
-25 -36 0
-26 -25 0
-26 -27 0
-26 -28 0
-26 -29 0
-26 -30 0
-26 -31 0
-26 -32 0
-26 -33 0
-26 -34 0
-26 -35 0
-26 -36 0
-27 -25 0
-27 -26 0
-27 -28 0
-27 -29 0
-27 -30 0
-27 -31 0
-27 -32 0
-27 -33 0
-27 -34 0
-27 -35 0
-27 -36 0
-37 -38 0
-37 -39 0
-37 -40 0
-37 -41 0
-37 -42 0
-37 -43 0
-37 -44 0
-37 -45 0
-37 -46 0
-37 -47 0
-37 -48 0
-38 -37 0
-38 -39 0
-38 -40 0
-38 -41 0
-38 -42 0
-38 -43 0
-38 -44 0
-38 -45 0
-38 -46 0
-38 -47 0
-38 -48 0
-39 -37 0
-39 -38 0
-39 -40 0
-39 -41 0
-39 -42 0
-39 -43 0
-39 -44 0
-39 -45 0
-39 -46 0
-39 -47 0
-39 -48 0
-49 -50 0
-49 -51 0
-49 -52 0
-49 -53 0
-49 -54 0
-49 -55 0
-49 -56 0
-49 -57 0
-49 -58 0
-49 -59 0
-49 -60 0
-50 -49 0
-50 -51 0
-50 -52 0
-50 -53 0
-50 -54 0
-50 -55 0
-50 -56 0
-50 -57 0
-50 -58 0
-50 -59 0
-50 -60 0
-51 -49 0
-51 -50 0
-51 -52 0
-51 -53 0
-51 -54 0
-51 -55 0
-51 -56 0
-51 -57 0
-51 -58 0
-51 -59 0
-51 -60 0
-61 -62 0
-61 -63 0
-61 -64 0
-61 -65 0
-61 -66 0
-61 -67 0
-61 -68 0
-61 -69 0
-61 -70 0
-61 -71 0
-61 -72 0
-62 -61 0
-62 -63 0
-62 -64 0
-62 -65 0
-62 -66 0
-62 -67 0
-62 -68 0
-62 -69 0
-62 -70 0
-62 -71 0
-62 -72 0
-63 -61 0
-63 -62 0
-63 -64 0
-63 -65 0
-63 -66 0
-63 -67 0
-63 -68 0
-63 -69 0
-63 -70 0
-63 -71 0
-63 -72 0
-4 -1 0
-4 -2 0
-4 -3 0
-4 -5 0
-4 -6 0
-4 -7 0
-4 -8 0
-4 -9 0
-4 -10 0
-4 -11 0
-4 -12 0
-5 -1 0
-5 -2 0
-5 -3 0
-5 -4 0
-5 -6 0
-5 -7 0
-5 -8 0
-5 -9 0
-5 -10 0
-5 -11 0
-5 -12 0
-6 -1 0
-6 -2 0
-6 -3 0
-6 -4 0
-6 -5 0
-6 -7 0
-6 -8 0
-6 -9 0
-6 -10 0
-6 -11 0
-6 -12 0
-16 -13 0
-16 -14 0
-16 -15 0
-16 -17 0
-16 -18 0
-16 -19 0
-16 -20 0
-16 -21 0
-16 -22 0
-16 -23 0
-16 -24 0
-17 -13 0
-17 -14 0
-17 -15 0
-17 -16 0
-17 -18 0
-17 -19 0
-17 -20 0
-17 -21 0
-17 -22 0
-17 -23 0
-17 -24 0
-18 -13 0
-18 -14 0
-18 -15 0
-18 -16 0
-18 -17 0
-18 -19 0
-18 -20 0
-18 -21 0
-18 -22 0
-18 -23 0
-18 -24 0
-28 -25 0
-28 -26 0
-28 -27 0
-28 -29 0
-28 -30 0
-28 -31 0
-28 -32 0
-28 -33 0
-28 -34 0
-28 -35 0
-28 -36 0
-29 -25 0
-29 -26 0
-29 -27 0
-29 -28 0
-29 -30 0
-29 -31 0
-29 -32 0
-29 -33 0
-29 -34 0
-29 -35 0
-29 -36 0
-30 -25 0
-30 -26 0
-30 -27 0
-30 -28 0
-30 -29 0
-30 -31 0
-30 -32 0
-30 -33 0
-30 -34 0
-30 -35 0
-30 -36 0
-40 -37 0
-40 -38 0
-40 -39 0
-40 -41 0
-40 -42 0
-40 -43 0
-40 -44 0
-40 -45 0
-40 -46 0
-40 -47 0
-40 -48 0
-41 -37 0
-41 -38 0
-41 -39 0
-41 -40 0
-41 -42 0
-41 -43 0
-41 -44 0
-41 -45 0
-41 -46 0
-41 -47 0
-41 -48 0
-42 -37 0
-42 -38 0
-42 -39 0
-42 -40 0
-42 -41 0
-42 -43 0
-42 -44 0
-42 -45 0
-42 -46 0
-42 -47 0
-42 -48 0
-52 -49 0
-52 -50 0
-52 -51 0
-52 -53 0
-52 -54 0
-52 -55 0
-52 -56 0
-52 -57 0
-52 -58 0
-52 -59 0
-52 -60 0
-53 -49 0
-53 -50 0
-53 -51 0
-53 -52 0
-53 -54 0
-53 -55 0
-53 -56 0
-53 -57 0
-53 -58 0
-53 -59 0
-53 -60 0
-54 -49 0
-54 -50 0
-54 -51 0
-54 -52 0
-54 -53 0
-54 -55 0
-54 -56 0
-54 -57 0
-54 -58 0
-54 -59 0
-54 -60 0
-64 -61 0
-64 -62 0
-64 -63 0
-64 -65 0
-64 -66 0
-64 -67 0
-64 -68 0
-64 -69 0
-64 -70 0
-64 -71 0
-64 -72 0
-65 -61 0
-65 -62 0
-65 -63 0
-65 -64 0
-65 -66 0
-65 -67 0
-65 -68 0
-65 -69 0
-65 -70 0
-65 -71 0
-65 -72 0
-66 -61 0
-66 -62 0
-66 -63 0
-66 -64 0
-66 -65 0
-66 -67 0
-66 -68 0
-66 -69 0
-66 -70 0
-66 -71 0
-66 -72 0
-7 -1 0
-7 -2 0
-7 -3 0
-7 -4 0
-7 -5 0
-7 -6 0
-7 -8 0
-7 -9 0
-7 -10 0
-7 -11 0
-7 -12 0
-8 -1 0
-8 -2 0
-8 -3 0
-8 -4 0
-8 -5 0
-8 -6 0
-8 -7 0
-8 -9 0
-8 -10 0
-8 -11 0
-8 -12 0
-9 -1 0
-9 -2 0
-9 -3 0
-9 -4 0
-9 -5 0
-9 -6 0
-9 -7 0
-9 -8 0
-9 -10 0
-9 -11 0
-9 -12 0
-19 -13 0
-19 -14 0
-19 -15 0
-19 -16 0
-19 -17 0
-19 -18 0
-19 -20 0
-19 -21 0
-19 -22 0
-19 -23 0
-19 -24 0
-20 -13 0
-20 -14 0
-20 -15 0
-20 -16 0
-20 -17 0
-20 -18 0
-20 -19 0
-20 -21 0
-20 -22 0
-20 -23 0
-20 -24 0
-21 -13 0
-21 -14 0
-21 -15 0
-21 -16 0
-21 -17 0
-21 -18 0
-21 -19 0
-21 -20 0
-21 -22 0
-21 -23 0
-21 -24 0
-31 -25 0
-31 -26 0
-31 -27 0
-31 -28 0
-31 -29 0
-31 -30 0
-31 -32 0
-31 -33 0
-31 -34 0
-31 -35 0
-31 -36 0
-32 -25 0
-32 -26 0
-32 -27 0
-32 -28 0
-32 -29 0
-32 -30 0
-32 -31 0
-32 -33 0
-32 -34 0
-32 -35 0
-32 -36 0
-33 -25 0
-33 -26 0
-33 -27 0
-33 -28 0
-33 -29 0
-33 -30 0
-33 -31 0
-33 -32 0
-33 -34 0
-33 -35 0
-33 -36 0
-43 -37 0
-43 -38 0
-43 -39 0
-43 -40 0
-43 -41 0
-43 -42 0
-43 -44 0
-43 -45 0
-43 -46 0
-43 -47 0
-43 -48 0
-44 -37 0
-44 -38 0
-44 -39 0
-44 -40 0
-44 -41 0
-44 -42 0
-44 -43 0
-44 -45 0
-44 -46 0
-44 -47 0
-44 -48 0
-45 -37 0
-45 -38 0
-45 -39 0
-45 -40 0
-45 -41 0
-45 -42 0
-45 -43 0
-45 -44 0
-45 -46 0
-45 -47 0
-45 -48 0
-55 -49 0
-55 -50 0
-55 -51 0
-55 -52 0
-55 -53 0
-55 -54 0
-55 -56 0
-55 -57 0
-55 -58 0
-55 -59 0
-55 -60 0
-56 -49 0
-56 -50 0
-56 -51 0
-56 -52 0
-56 -53 0
-56 -54 0
-56 -55 0
-56 -57 0
-56 -58 0
-56 -59 0
-56 -60 0
-57 -49 0
-57 -50 0
-57 -51 0
-57 -52 0
-57 -53 0
-57 -54 0
-57 -55 0
-57 -56 0
-57 -58 0
-57 -59 0
-57 -60 0
-67 -61 0
-67 -62 0
-67 -63 0
-67 -64 0
-67 -65 0
-67 -66 0
-67 -68 0
-67 -69 0
-67 -70 0
-67 -71 0
-67 -72 0
-68 -61 0
-68 -62 0
-68 -63 0
-68 -64 0
-68 -65 0
-68 -66 0
-68 -67 0
-68 -69 0
-68 -70 0
-68 -71 0
-68 -72 0
-69 -61 0
-69 -62 0
-69 -63 0
-69 -64 0
-69 -65 0
-69 -66 0
-69 -67 0
-69 -68 0
-69 -70 0
-69 -71 0
-69 -72 0
-10 -1 0
-10 -2 0
-10 -3 0
-10 -4 0
-10 -5 0
-10 -6 0
-10 -7 0
-10 -8 0
-10 -9 0
-10 -11 0
-10 -12 0
-11 -1 0
-11 -2 0
-11 -3 0
-11 -4 0
-11 -5 0
-11 -6 0
-11 -7 0
-11 -8 0
-11 -9 0
-11 -10 0
-11 -12 0
-12 -1 0
-12 -2 0
-12 -3 0
-12 -4 0
-12 -5 0
-12 -6 0
-12 -7 0
-12 -8 0
-12 -9 0
-12 -10 0
-12 -11 0
-22 -13 0
-22 -14 0
-22 -15 0
-22 -16 0
-22 -17 0
-22 -18 0
-22 -19 0
-22 -20 0
-22 -21 0
-22 -23 0
-22 -24 0
-23 -13 0
-23 -14 0
-23 -15 0
-23 -16 0
-23 -17 0
-23 -18 0
-23 -19 0
-23 -20 0
-23 -21 0
-23 -22 0
-23 -24 0
-24 -13 0
-24 -14 0
-24 -15 0
-24 -16 0
-24 -17 0
-24 -18 0
-24 -19 0
-24 -20 0
-24 -21 0
-24 -22 0
-24 -23 0
-34 -25 0
-34 -26 0
-34 -27 0
-34 -28 0
-34 -29 0
-34 -30 0
-34 -31 0
-34 -32 0
-34 -33 0
-34 -35 0
-34 -36 0
-35 -25 0
-35 -26 0
-35 -27 0
-35 -28 0
-35 -29 0
-35 -30 0
-35 -31 0
-35 -32 0
-35 -33 0
-35 -34 0
-35 -36 0
-36 -25 0
-36 -26 0
-36 -27 0
-36 -28 0
-36 -29 0
-36 -30 0
-36 -31 0
-36 -32 0
-36 -33 0
-36 -34 0
-36 -35 0
-46 -37 0
-46 -38 0
-46 -39 0
-46 -40 0
-46 -41 0
-46 -42 0
-46 -43 0
-46 -44 0
-46 -45 0
-46 -47 0
-46 -48 0
-47 -37 0
-47 -38 0
-47 -39 0
-47 -40 0
-47 -41 0
-47 -42 0
-47 -43 0
-47 -44 0
-47 -45 0
-47 -46 0
-47 -48 0
-48 -37 0
-48 -38 0
-48 -39 0
-48 -40 0
-48 -41 0
-48 -42 0
-48 -43 0
-48 -44 0
-48 -45 0
-48 -46 0
-48 -47 0
-58 -49 0
-58 -50 0
-58 -51 0
-58 -52 0
-58 -53 0
-58 -54 0
-58 -55 0
-58 -56 0
-58 -57 0
-58 -59 0
-58 -60 0
-59 -49 0
-59 -50 0
-59 -51 0
-59 -52 0
-59 -53 0
-59 -54 0
-59 -55 0
-59 -56 0
-59 -57 0
-59 -58 0
-59 -60 0
-60 -49 0
-60 -50 0
-60 -51 0
-60 -52 0
-60 -53 0
-60 -54 0
-60 -55 0
-60 -56 0
-60 -57 0
-60 -58 0
-60 -59 0
-70 -61 0
-70 -62 0
-70 -63 0
-70 -64 0
-70 -65 0
-70 -66 0
-70 -67 0
-70 -68 0
-70 -69 0
-70 -71 0
-70 -72 0
-71 -61 0
-71 -62 0
-71 -63 0
-71 -64 0
-71 -65 0
-71 -66 0
-71 -67 0
-71 -68 0
-71 -69 0
-71 -70 0
-71 -72 0
-72 -61 0
-72 -62 0
-72 -63 0
-72 -64 0
-72 -65 0
-72 -66 0
-72 -67 0
-72 -68 0
-72 -69 0
-72 -70 0
-72 -71 0
-1 -13 0
-1 -14 0
-2 -13 0
-2 -14 0
-13 -1 0
-13 -2 0
-14 -1 0
-14 -2 0
-25 -37 0
-25 -38 0
-26 -37 0
-26 -38 0
-37 -25 0
-37 -26 0
-38 -25 0
-38 -26 0
-49 -61 0
-49 -62 0
-50 -61 0
-50 -62 0
-61 -49 0
-61 -50 0
-62 -49 0
-62 -50 0
-4 -16 0
-4 -17 0
-5 -16 0
-5 -17 0
-16 -4 0
-16 -5 0
-17 -4 0
-17 -5 0
-28 -40 0
-28 -41 0
-29 -40 0
-29 -41 0
-40 -28 0
-40 -29 0
-41 -28 0
-41 -29 0
-52 -64 0
-52 -65 0
-53 -64 0
-53 -65 0
-64 -52 0
-64 -53 0
-65 -52 0
-65 -53 0
-7 -19 0
-7 -20 0
-8 -19 0
-8 -20 0
-19 -7 0
-19 -8 0
-20 -7 0
-20 -8 0
-31 -43 0
-31 -44 0
-32 -43 0
-32 -44 0
-43 -31 0
-43 -32 0
-44 -31 0
-44 -32 0
-55 -67 0
-55 -68 0
-56 -67 0
-56 -68 0
-67 -55 0
-67 -56 0
-68 -55 0
-68 -56 0
-10 -22 0
-10 -23 0
-11 -22 0
-11 -23 0
-22 -10 0
-22 -11 0
-23 -10 0
-23 -11 0
-34 -46 0
-34 -47 0
-35 -46 0
-35 -47 0
-46 -34 0
-46 -35 0
-47 -34 0
-47 -35 0
-58 -70 0
-58 -71 0
-59 -70 0
-59 -71 0
-70 -58 0
-70 -59 0
-71 -58 0
-71 -59 0
-1 -13 0
-1 -25 0
-1 -37 0
-1 -49 0
-1 -61 0
-13 -1 0
-13 -25 0
-13 -37 0
-13 -49 0
-13 -61 0
-25 -1 0
-25 -13 0
-25 -37 0
-25 -49 0
-25 -61 0
-37 -1 0
-37 -13 0
-37 -25 0
-37 -49 0
-37 -61 0
-49 -1 0
-49 -13 0
-49 -25 0
-49 -37 0
-49 -61 0
-61 -1 0
-61 -13 0
-61 -25 0
-61 -37 0
-61 -49 0
-2 -14 0
-2 -26 0
-2 -38 0
-2 -50 0
-2 -62 0
-14 -2 0
-14 -26 0
-14 -38 0
-14 -50 0
-14 -62 0
-26 -2 0
-26 -14 0
-26 -38 0
-26 -50 0
-26 -62 0
-38 -2 0
-38 -14 0
-38 -26 0
-38 -50 0
-38 -62 0
-50 -2 0
-50 -14 0
-50 -26 0
-50 -38 0
-50 -62 0
-62 -2 0
-62 -14 0
-62 -26 0
-62 -38 0
-62 -50 0
-3 -15 0
-3 -27 0
-3 -39 0
-3 -51 0
-3 -63 0
-15 -3 0
-15 -27 0
-15 -39 0
-15 -51 0
-15 -63 0
-27 -3 0
-27 -15 0
-27 -39 0
-27 -51 0
-27 -63 0
-39 -3 0
-39 -15 0
-39 -27 0
-39 -51 0
-39 -63 0
-51 -3 0
-51 -15 0
-51 -27 0
-51 -39 0
-51 -63 0
-63 -3 0
-63 -15 0
-63 -27 0
-63 -39 0
-63 -51 0
-4 -16 0
-4 -28 0
-4 -40 0
-4 -52 0
-4 -64 0
-16 -4 0
-16 -28 0
-16 -40 0
-16 -52 0
-16 -64 0
-28 -4 0
-28 -16 0
-28 -40 0
-28 -52 0
-28 -64 0
-40 -4 0
-40 -16 0
-40 -28 0
-40 -52 0
-40 -64 0
-52 -4 0
-52 -16 0
-52 -28 0
-52 -40 0
-52 -64 0
-64 -4 0
-64 -16 0
-64 -28 0
-64 -40 0
-64 -52 0
-5 -17 0
-5 -29 0
-5 -41 0
-5 -53 0
-5 -65 0
-17 -5 0
-17 -29 0
-17 -41 0
-17 -53 0
-17 -65 0
-29 -5 0
-29 -17 0
-29 -41 0
-29 -53 0
-29 -65 0
-41 -5 0
-41 -17 0
-41 -29 0
-41 -53 0
-41 -65 0
-53 -5 0
-53 -17 0
-53 -29 0
-53 -41 0
-53 -65 0
-65 -5 0
-65 -17 0
-65 -29 0
-65 -41 0
-65 -53 0
-6 -18 0
-6 -30 0
-6 -42 0
-6 -54 0
-6 -66 0
-18 -6 0
-18 -30 0
-18 -42 0
-18 -54 0
-18 -66 0
-30 -6 0
-30 -18 0
-30 -42 0
-30 -54 0
-30 -66 0
-42 -6 0
-42 -18 0
-42 -30 0
-42 -54 0
-42 -66 0
-54 -6 0
-54 -18 0
-54 -30 0
-54 -42 0
-54 -66 0
-66 -6 0
-66 -18 0
-66 -30 0
-66 -42 0
-66 -54 0
-7 -19 0
-7 -31 0
-7 -43 0
-7 -55 0
-7 -67 0
-19 -7 0
-19 -31 0
-19 -43 0
-19 -55 0
-19 -67 0
-31 -7 0
-31 -19 0
-31 -43 0
-31 -55 0
-31 -67 0
-43 -7 0
-43 -19 0
-43 -31 0
-43 -55 0
-43 -67 0
-55 -7 0
-55 -19 0
-55 -31 0
-55 -43 0
-55 -67 0
-67 -7 0
-67 -19 0
-67 -31 0
-67 -43 0
-67 -55 0
-8 -20 0
-8 -32 0
-8 -44 0
-8 -56 0
-8 -68 0
-20 -8 0
-20 -32 0
-20 -44 0
-20 -56 0
-20 -68 0
-32 -8 0
-32 -20 0
-32 -44 0
-32 -56 0
-32 -68 0
-44 -8 0
-44 -20 0
-44 -32 0
-44 -56 0
-44 -68 0
-56 -8 0
-56 -20 0
-56 -32 0
-56 -44 0
-56 -68 0
-68 -8 0
-68 -20 0
-68 -32 0
-68 -44 0
-68 -56 0
-9 -21 0
-9 -33 0
-9 -45 0
-9 -57 0
-9 -69 0
-21 -9 0
-21 -33 0
-21 -45 0
-21 -57 0
-21 -69 0
-33 -9 0
-33 -21 0
-33 -45 0
-33 -57 0
-33 -69 0
-45 -9 0
-45 -21 0
-45 -33 0
-45 -57 0
-45 -69 0
-57 -9 0
-57 -21 0
-57 -33 0
-57 -45 0
-57 -69 0
-69 -9 0
-69 -21 0
-69 -33 0
-69 -45 0
-69 -57 0
-10 -22 0
-10 -34 0
-10 -46 0
-10 -58 0
-10 -70 0
-22 -10 0
-22 -34 0
-22 -46 0
-22 -58 0
-22 -70 0
-34 -10 0
-34 -22 0
-34 -46 0
-34 -58 0
-34 -70 0
-46 -10 0
-46 -22 0
-46 -34 0
-46 -58 0
-46 -70 0
-58 -10 0
-58 -22 0
-58 -34 0
-58 -46 0
-58 -70 0
-70 -10 0
-70 -22 0
-70 -34 0
-70 -46 0
-70 -58 0
-11 -23 0
-11 -35 0
-11 -47 0
-11 -59 0
-11 -71 0
-23 -11 0
-23 -35 0
-23 -47 0
-23 -59 0
-23 -71 0
-35 -11 0
-35 -23 0
-35 -47 0
-35 -59 0
-35 -71 0
-47 -11 0
-47 -23 0
-47 -35 0
-47 -59 0
-47 -71 0
-59 -11 0
-59 -23 0
-59 -35 0
-59 -47 0
-59 -71 0
-71 -11 0
-71 -23 0
-71 -35 0
-71 -47 0
-71 -59 0
-12 -24 0
-12 -36 0
-12 -48 0
-12 -60 0
-12 -72 0
-24 -12 0
-24 -36 0
-24 -48 0
-24 -60 0
-24 -72 0
-36 -12 0
-36 -24 0
-36 -48 0
-36 -60 0
-36 -72 0
-48 -12 0
-48 -24 0
-48 -36 0
-48 -60 0
-48 -72 0
-60 -12 0
-60 -24 0
-60 -36 0
-60 -48 0
-60 -72 0
-72 -12 0
-72 -24 0
-72 -36 0
-72 -48 0
-72 -60 0
-1 -16 0
-1 -64 0
-1 -17 0
-1 -65 0
-1 -18 0
-1 -66 0
-2 -16 0
-2 -64 0
-2 -17 0
-2 -65 0
-2 -18 0
-2 -66 0
-3 -16 0
-3 -64 0
-3 -17 0
-3 -65 0
-3 -18 0
-3 -66 0
-13 -4 0
-13 -40 0
-13 -5 0
-13 -41 0
-13 -6 0
-13 -42 0
-14 -4 0
-14 -40 0
-14 -5 0
-14 -41 0
-14 -6 0
-14 -42 0
-15 -4 0
-15 -40 0
-15 -5 0
-15 -41 0
-15 -6 0
-15 -42 0
-25 -40 0
-25 -52 0
-25 -41 0
-25 -53 0
-25 -42 0
-25 -54 0
-26 -40 0
-26 -52 0
-26 -41 0
-26 -53 0
-26 -42 0
-26 -54 0
-27 -40 0
-27 -52 0
-27 -41 0
-27 -53 0
-27 -42 0
-27 -54 0
-37 -28 0
-37 -16 0
-37 -29 0
-37 -17 0
-37 -30 0
-37 -18 0
-38 -28 0
-38 -16 0
-38 -29 0
-38 -17 0
-38 -30 0
-38 -18 0
-39 -28 0
-39 -16 0
-39 -29 0
-39 -17 0
-39 -30 0
-39 -18 0
-49 -64 0
-49 -28 0
-49 -65 0
-49 -29 0
-49 -66 0
-49 -30 0
-50 -64 0
-50 -28 0
-50 -65 0
-50 -29 0
-50 -66 0
-50 -30 0
-51 -64 0
-51 -28 0
-51 -65 0
-51 -29 0
-51 -66 0
-51 -30 0
-61 -52 0
-61 -4 0
-61 -53 0
-61 -5 0
-61 -54 0
-61 -6 0
-62 -52 0
-62 -4 0
-62 -53 0
-62 -5 0
-62 -54 0
-62 -6 0
-63 -52 0
-63 -4 0
-63 -53 0
-63 -5 0
-63 -54 0
-63 -6 0
-4 -19 0
-4 -67 0
-4 -20 0
-4 -68 0
-4 -21 0
-4 -69 0
-5 -19 0
-5 -67 0
-5 -20 0
-5 -68 0
-5 -21 0
-5 -69 0
-6 -19 0
-6 -67 0
-6 -20 0
-6 -68 0
-6 -21 0
-6 -69 0
-16 -7 0
-16 -43 0
-16 -8 0
-16 -44 0
-16 -9 0
-16 -45 0
-17 -7 0
-17 -43 0
-17 -8 0
-17 -44 0
-17 -9 0
-17 -45 0
-18 -7 0
-18 -43 0
-18 -8 0
-18 -44 0
-18 -9 0
-18 -45 0
-28 -43 0
-28 -55 0
-28 -44 0
-28 -56 0
-28 -45 0
-28 -57 0
-29 -43 0
-29 -55 0
-29 -44 0
-29 -56 0
-29 -45 0
-29 -57 0
-30 -43 0
-30 -55 0
-30 -44 0
-30 -56 0
-30 -45 0
-30 -57 0
-40 -31 0
-40 -19 0
-40 -32 0
-40 -20 0
-40 -33 0
-40 -21 0
-41 -31 0
-41 -19 0
-41 -32 0
-41 -20 0
-41 -33 0
-41 -21 0
-42 -31 0
-42 -19 0
-42 -32 0
-42 -20 0
-42 -33 0
-42 -21 0
-52 -67 0
-52 -31 0
-52 -68 0
-52 -32 0
-52 -69 0
-52 -33 0
-53 -67 0
-53 -31 0
-53 -68 0
-53 -32 0
-53 -69 0
-53 -33 0
-54 -67 0
-54 -31 0
-54 -68 0
-54 -32 0
-54 -69 0
-54 -33 0
-64 -55 0
-64 -7 0
-64 -56 0
-64 -8 0
-64 -57 0
-64 -9 0
-65 -55 0
-65 -7 0
-65 -56 0
-65 -8 0
-65 -57 0
-65 -9 0
-66 -55 0
-66 -7 0
-66 -56 0
-66 -8 0
-66 -57 0
-66 -9 0
-7 -22 0
-7 -70 0
-7 -23 0
-7 -71 0
-7 -24 0
-7 -72 0
-8 -22 0
-8 -70 0
-8 -23 0
-8 -71 0
-8 -24 0
-8 -72 0
-9 -22 0
-9 -70 0
-9 -23 0
-9 -71 0
-9 -24 0
-9 -72 0
-19 -10 0
-19 -46 0
-19 -11 0
-19 -47 0
-19 -12 0
-19 -48 0
-20 -10 0
-20 -46 0
-20 -11 0
-20 -47 0
-20 -12 0
-20 -48 0
-21 -10 0
-21 -46 0
-21 -11 0
-21 -47 0
-21 -12 0
-21 -48 0
-31 -46 0
-31 -58 0
-31 -47 0
-31 -59 0
-31 -48 0
-31 -60 0
-32 -46 0
-32 -58 0
-32 -47 0
-32 -59 0
-32 -48 0
-32 -60 0
-33 -46 0
-33 -58 0
-33 -47 0
-33 -59 0
-33 -48 0
-33 -60 0
-43 -34 0
-43 -22 0
-43 -35 0
-43 -23 0
-43 -36 0
-43 -24 0
-44 -34 0
-44 -22 0
-44 -35 0
-44 -23 0
-44 -36 0
-44 -24 0
-45 -34 0
-45 -22 0
-45 -35 0
-45 -23 0
-45 -36 0
-45 -24 0
-55 -70 0
-55 -34 0
-55 -71 0
-55 -35 0
-55 -72 0
-55 -36 0
-56 -70 0
-56 -34 0
-56 -71 0
-56 -35 0
-56 -72 0
-56 -36 0
-57 -70 0
-57 -34 0
-57 -71 0
-57 -35 0
-57 -72 0
-57 -36 0
-67 -58 0
-67 -10 0
-67 -59 0
-67 -11 0
-67 -60 0
-67 -12 0
-68 -58 0
-68 -10 0
-68 -59 0
-68 -11 0
-68 -60 0
-68 -12 0
-69 -58 0
-69 -10 0
-69 -59 0
-69 -11 0
-69 -60 0
-69 -12 0
